sat
(:max-memory         18.03
 :memory             17.93
 :nlsat-propagations 5
 :nlsat-stages       4
 :num-allocs         5607
 :rlimit-count       1114
 :time               0.00
 :total-time         0.01)
